# Objective value = 4347.06
I_0_0 1301
I_0_1 1699
I_0_2 1.4510000000000002e+03
I_0_3 1.9990000000000002e+03
I_1_0 19
I_1_1 0
I_1_2 19
I_1_3 0
I_2_0 26
I_2_1 0
I_2_2 26
I_2_3 0
I_3_0 43
I_3_1 0
I_3_2 43
I_3_3 0
I_4_0 44
I_4_1 0
I_4_2 44
I_4_3 0
I_5_0 51
I_5_1 0
I_5_2 51
I_5_3 0
I_6_0 102
I_6_1 102
I_6_2 5.1000000000000114e+01
I_6_3 -1.1368683772161603e-13
I_7_0 110
I_7_1 55
I_7_2 1.1000000000000001e+02
I_7_3 5.5000000000000014e+01
I_8_0 69
I_8_1 2.6264704696846578e-14
I_8_2 69
I_8_3 0
I_9_0 91
I_9_1 0
I_9_2 91
I_9_3 0
I_10_0 198
I_10_1 198
I_10_2 9.8999999999999773e+01
I_10_3 -1.5471750864597721e-13
q_1_0 0
q_1_1 38
q_1_2 0
q_2_0 0
q_2_1 52
q_2_2 0
q_3_0 0
q_3_1 86
q_3_2 0
q_4_0 0
q_4_1 88
q_4_2 0
q_5_0 0
q_5_1 102
q_5_2 0
q_6_0 51
q_6_1 8.5265128291212022e-14
q_6_2 -2.2737367544323206e-13
q_7_0 0
q_7_1 1.1000000000000001e+02
q_7_2 4.4408920985006262e-15
q_8_0 2.6264704696846578e-14
q_8_1 1.3799999999999997e+02
q_8_2 0
q_9_0 0
q_9_1 182
q_9_2 0
q_10_0 99
q_10_1 -1.6892836336117921e-13
q_10_2 7.1054273576010019e-14
y_0_0 1
y_0_1 1
y_0_2 0
y_1_0 0
y_1_1 1
y_1_2 0
y_2_0 0
y_2_1 1
y_2_2 0
y_3_0 0
y_3_1 1
y_3_2 0
y_4_0 0
y_4_1 1
y_4_2 0
y_5_0 0
y_5_1 1
y_5_2 0
y_6_0 1
y_6_1 0
y_6_2 0
y_7_0 0
y_7_1 1
y_7_2 0
y_8_0 3.8064789415719675e-16
y_8_1 1
y_8_2 0
y_9_0 0
y_9_1 1
y_9_2 0
y_10_0 1
y_10_1 -5.1942577223534152e-16
y_10_2 -1.3824920044737069e-15
x_0_1_0 0
x_0_1_1 1
x_0_1_2 -2.4424906541753444e-15
x_0_2_0 0
x_0_2_1 0
x_0_2_2 0
x_0_3_0 0
x_0_3_1 0
x_0_3_2 0
x_0_4_0 0
x_0_4_1 0
x_0_4_2 0
x_0_5_0 0
x_0_5_1 0
x_0_5_2 0
x_0_6_0 1.0000000000000013e+00
x_0_6_1 0
x_0_6_2 0
x_0_7_0 0
x_0_7_1 0
x_0_7_2 0
x_0_8_0 0
x_0_8_1 1.0000000000000002e+00
x_0_8_2 1.3216940769347114e-15
x_0_9_0 0
x_0_9_1 2.2204460492503131e-16
x_0_9_2 0
x_0_10_0 9.9999999999999867e-01
x_0_10_1 -7.4147037716037283e-16
x_0_10_2 -2.7649840089474137e-15
x_1_2_0 0
x_1_2_1 0
x_1_2_2 0
x_1_3_0 0
x_1_3_1 0
x_1_3_2 0
x_1_4_0 0
x_1_4_1 0
x_1_4_2 1.3322676295501878e-15
x_1_5_0 0
x_1_5_1 9.9999999999999967e-01
x_1_5_2 1.3322676295501878e-15
x_1_6_0 -1.3877787807814457e-17
x_1_6_1 -4.4408920985006262e-16
x_1_6_2 0
x_1_7_0 0
x_1_7_1 0
x_1_7_2 0
x_1_8_0 0
x_1_8_1 0
x_1_8_2 0
x_1_9_0 0
x_1_9_1 0
x_1_9_2 0
x_1_10_0 0
x_1_10_1 -6.3044807469785717e-16
x_1_10_2 0
x_2_3_0 0
x_2_3_1 9.9999999999999667e-01
x_2_3_2 7.1635818969861362e-16
x_2_4_0 0
x_2_4_1 0
x_2_4_2 0
x_2_5_0 0
x_2_5_1 0
x_2_5_2 0
x_2_6_0 0
x_2_6_1 0
x_2_6_2 0
x_2_7_0 0
x_2_7_1 0
x_2_7_2 6.0533588723609787e-16
x_2_8_0 0
x_2_8_1 2.8240196777171645e-15
x_2_8_2 -1.3216940769347114e-15
x_2_9_0 0
x_2_9_1 1
x_2_9_2 -1.6653345369377348e-16
x_2_10_0 0
x_2_10_1 0
x_2_10_2 0
x_3_4_0 0
x_3_4_1 0
x_3_4_2 0
x_3_5_0 0
x_3_5_1 0
x_3_5_2 0
x_3_6_0 0
x_3_6_1 0
x_3_6_2 0
x_3_7_0 0
x_3_7_1 1
x_3_7_2 -7.1635818969861362e-16
x_3_8_0 0
x_3_8_1 0
x_3_8_2 0
x_3_9_0 0
x_3_9_1 2.7685085264859066e-15
x_3_9_2 0
x_3_10_0 0
x_3_10_1 0
x_3_10_2 0
x_4_5_0 0
x_4_5_1 1
x_4_5_2 0
x_4_6_0 0
x_4_6_1 2.9003533075639897e-15
x_4_6_2 -1.3322676295501878e-15
x_4_7_0 0
x_4_7_1 9.9999999999999711e-01
x_4_7_2 0
x_4_8_0 0
x_4_8_1 0
x_4_8_2 0
x_4_9_0 0
x_4_9_1 0
x_4_9_2 0
x_4_10_0 0
x_4_10_1 0
x_4_10_2 0
x_5_6_0 0
x_5_6_1 -2.7338198538702162e-15
x_5_6_2 0
x_5_7_0 0
x_5_7_1 2.9003533075639897e-15
x_5_7_2 0
x_5_8_0 0
x_5_8_1 0
x_5_8_2 0
x_5_9_0 0
x_5_9_1 0
x_5_9_2 0
x_5_10_0 0
x_5_10_1 0
x_5_10_2 0
x_6_7_0 0
x_6_7_1 0
x_6_7_2 0
x_6_8_0 6.6613381477509392e-16
x_6_8_1 0
x_6_8_2 0
x_6_9_0 0
x_6_9_1 0
x_6_9_2 0
x_6_10_0 1.0000000000000013e+00
x_6_10_1 0
x_6_10_2 0
x_7_8_0 0
x_7_8_1 0
x_7_8_2 0
x_7_9_0 0
x_7_9_1 0
x_7_9_2 1.6653345369377348e-16
x_7_10_0 0
x_7_10_1 0
x_7_10_2 0
x_8_9_0 0
x_8_9_1 9.9999999999999689e-01
x_8_9_2 0
x_8_10_0 0
x_8_10_1 0
x_8_10_2 0
x_9_10_0 0
x_9_10_1 0
x_9_10_2 0
